(declare-const t1 Int)
(declare-const t2 Int)
(declare-const t3 Int)
(declare-const t4 Int)
(declare-const t5 Int)
(declare-const t6 Int)
(declare-const t7 Int)
(declare-const t8 Int)
(declare-const t9 Int)
(declare-const t10 Int)
(assert (and true (<= t4 1) (>= t4 0) (<= t3 1) (>= t3 0) (<= t2 1) (>= t2 0) (<= t1 1) (>= t1 0) (<= t10 1) (>= t10 0) (<= t9 1) (>= t9 0) (<= t8 1) (>= t8 0) (<= t7 1) (>= t7 0) (<= t6 1) (>= t6 0) (<= t5 1) (>= t5 0) true))
(check-sat)
(get-model)
